c preprocessed version of RingedTree_8, 189 vertices, 440 edges
p td 189 440
0 1
0 142
174 0
175 0
2 0
2 1
170 1
169 1
167 1
2 3
2 171
170 2
4 3
175 3
176 3
171 3
5 4
176 4
171 4
5 6
176 5
12 5
7 6
176 6
10 6
12 6
8 7
18 7
175 7
10 7
8 9
18 8
16 8
14 8
10 9
11 9
14 9
13 9
10 11
12 10
12 11
13 11
13 14
13 60
14 15
14 60
16 15
60 15
58 15
59 15
17 16
55 16
58 16
17 18
46 17
17 55
19 17
19 18
174 18
20 19
185 19
20 21
39 20
20 141
20 174
21 22
39 21
21 140
21 40
22 23
140 22
22 138
22 177
23 24
40 23
23 178
23 179
24 25
40 24
24 180
24 41
25 26
25 125
180 25
181 25
26 27
26 123
41 26
124 26
27 28
27 119
41 27
183 27
28 29
28 115
36 28
118 28
29 30
29 111
36 29
114 29
30 31
35 30
30 107
110 30
31 32
31 103
35 31
106 31
33 32
32 95
32 97
102 32
34 33
33 43
35 33
33 95
34 35
34 42
37 34
36 35
37 36
41 36
38 37
40 37
37 41
39 38
38 40
42 43
42 44
42 185
43 44
43 86
43 85
44 45
44 76
44 75
45 46
45 67
185 45
45 66
46 47
185 46
46 51
47 48
66 47
47 51
184 47
49 48
50 48
63 48
184 48
50 49
62 49
63 49
50 51
50 52
62 50
51 52
51 55
53 52
54 52
62 52
54 53
61 53
62 53
54 55
54 56
61 54
55 56
57 56
58 56
61 56
58 57
59 57
61 57
59 58
59 60
63 64
63 184
64 65
184 64
71 64
66 65
184 65
69 65
71 65
67 66
69 66
67 68
75 67
73 67
69 68
70 68
73 68
72 68
69 70
71 69
71 70
72 70
72 73
72 81
73 74
73 81
75 74
81 74
78 74
80 74
76 75
78 75
76 77
85 76
83 76
78 77
79 77
83 77
82 77
78 79
80 78
80 79
82 79
80 81
82 83
82 91
83 84
83 91
85 84
91 84
88 84
90 84
86 85
88 85
86 87
95 86
93 86
88 87
89 87
93 87
92 87
88 89
90 88
90 89
92 89
90 91
92 93
92 100
93 94
93 100
95 94
100 94
96 94
99 94
96 95
96 97
96 98
99 96
98 97
102 97
101 97
99 98
101 98
99 100
101 102
101 104
102 103
102 104
104 103
106 103
105 103
105 104
105 106
105 108
106 107
106 108
108 107
110 107
109 107
109 108
109 110
109 112
110 111
110 112
112 111
114 111
113 111
113 112
113 114
113 116
114 115
114 116
116 115
118 115
117 115
117 116
117 118
117 120
118 119
118 120
120 119
183 119
121 119
121 120
121 122
121 183
122 123
122 182
183 122
124 123
182 123
183 123
124 125
126 124
182 124
126 125
127 125
181 125
127 126
126 182
127 128
127 181
128 129
181 128
157 128
130 129
180 129
181 129
157 129
130 131
130 156
130 180
157 130
132 131
179 131
156 131
155 131
132 133
132 154
132 179
155 132
134 133
178 133
154 133
153 133
134 135
134 152
134 178
153 134
136 135
177 135
152 135
151 135
136 137
136 150
136 177
151 136
138 137
150 137
149 137
158 137
139 138
138 177
158 138
140 139
144 139
139 159
160 139
141 140
140 144
141 142
141 143
174 141
142 143
142 166
167 142
143 144
143 163
165 143
144 145
164 144
146 145
160 145
161 145
164 145
147 146
160 146
161 146
147 148
147 159
147 160
149 148
148 159
158 148
149 150
149 158
151 150
151 152
153 152
153 154
155 154
155 156
157 156
158 159
160 159
161 162
161 164
162 163
164 162
173 162
164 163
165 163
173 163
165 166
165 172
173 165
167 166
168 166
172 166
168 167
167 169
168 169
172 168
169 170
170 171
173 172
174 175
176 175
177 178
178 179
179 180
186 188
186 187
186 34
186 42
186 38
187 188
187 19
187 39
187 185
188 39
188 38
